param d:     1    2:=
1 19.0 1.526
2 1.0 1.76286
3 1.0 2.92254
4 17.0 2.49139
5 1.0 3.94047
6 7.0 3.83962
7 1.0 4.5777
8 9.0 4.31457
9 9.0 2.92064
10 1.0 4.57526
11 2.0 4.98055
12 3.0 3.83745
13 2.0 2.48916
14 2.0 4.31264
15 2.0 4.98278
16 1.0 4.57527
17 2.0 4.31392
18 1.0 2.91968
19 2.0 3.52256
20 1.0 4.57648
;
param m :=20;
param l :=20;
end;
